[3949.4, 3908.4, 3879.1, 3824.4, 3834.2, 3864.4, 3819.4, 3807.8, 3809.9, 3775.2, 3823.0, 3792.8, 3791.1, 3798.0, 3807.1, 3805.6, 3789.8, 3788.5, 3812.5, 3816.8, 3803.2, 3830.1, 3797.9, 3826.1, 3828.4, 3860.8, 3830.6, 3822.2]